NAME : G100_3213_01
COMMENT : Generated CVRP instance (n=100)
TYPE : CVRP
DIMENSION : 101
EDGE_WEIGHT_TYPE : EUC_2D
CAPACITY : 8
NODE_COORD_SECTION
1    0    0   
2    271  667 
3    380  583 
4    605  875 
5    429  868 
6    428  302 
7    566  974 
8    310  630 
9    495  285 
10   569  954 
11   499  920 
12   534  972 
13   765  984 
14   528  263 
15   612  180 
16   255  599 
17   509  332 
18   309  600 
19   527  276 
20   132  656 
21   580  932 
22   512  77  
23   546  374 
24   375  602 
25   274  504 
26   625  948 
27   341  588 
28   475  439 
29   458  691 
30   421  477 
31   415  665 
32   597  959 
33   319  612 
34   504  740 
35   282  602 
36   664  823 
37   494  299 
38   350  636 
39   757  392 
40   679  848 
41   513  288 
42   412  577 
43   720  693 
44   301  499 
45   511  299 
46   680  922 
47   370  607 
48   310  620 
49   704  861 
50   573  969 
51   443  942 
52   649  781 
53   341  610 
54   663  972 
55   442  351 
56   797  673 
57   443  624 
58   507  242 
59   327  677 
60   522  892 
61   496  900 
62   542  986 
63   503  951 
64   310  581 
65   193  453 
66   288  496 
67   315  305 
68   415  465 
69   369  651 
70   294  477 
71   271  649 
72   522  960 
73   663  5   
74   545  934 
75   241  660 
76   567  345 
77   482  304 
78   674  926 
79   663  871 
80   578  958 
81   368  584 
82   497  567 
83   343  628 
84   485  303 
85   508  243 
86   339  712 
87   475  344 
88   399  290 
89   499  292 
90   276  604 
91   469  861 
92   515  876 
93   578  386 
94   667  989 
95   746  800 
96   559  928 
97   527  340 
98   341  641 
99   402  791 
100  558  947 
101  588  365 
DEMAND_SECTION
1    0   
2    1   
3    1   
4    1   
5    1   
6    1   
7    1   
8    1   
9    1   
10   1   
11   1   
12   1   
13   1   
14   1   
15   1   
16   1   
17   1   
18   1   
19   1   
20   1   
21   1   
22   1   
23   1   
24   1   
25   1   
26   1   
27   1   
28   1   
29   1   
30   1   
31   1   
32   1   
33   1   
34   1   
35   1   
36   1   
37   1   
38   1   
39   1   
40   1   
41   1   
42   1   
43   1   
44   1   
45   1   
46   1   
47   1   
48   1   
49   1   
50   1   
51   1   
52   1   
53   1   
54   1   
55   1   
56   1   
57   1   
58   1   
59   1   
60   1   
61   1   
62   1   
63   1   
64   1   
65   1   
66   1   
67   1   
68   1   
69   1   
70   1   
71   1   
72   1   
73   1   
74   1   
75   1   
76   1   
77   1   
78   1   
79   1   
80   1   
81   1   
82   1   
83   1   
84   1   
85   1   
86   1   
87   1   
88   1   
89   1   
90   1   
91   1   
92   1   
93   1   
94   1   
95   1   
96   1   
97   1   
98   1   
99   1   
100  1   
101  1   
DEPOT_SECTION
1
-1
EOF
